
List of user-set options:

                                    Name   Value                used
                           compl_inf_tol = 1                     yes
                         constr_viol_tol = 1                     yes
                            dual_inf_tol = 1000                  yes
                           linear_solver = ma97                  yes
                              ma86_small = 1e-30                  no
                                  ma86_u = 0.0001                 no
                              ma97_order = best                  yes
                              ma97_small = 1e-30                 yes
                            ma97_switch1 = at_start              yes
                            ma97_switch2 = od_hd_reuse           yes
                                  ma97_u = 1e-06                 yes
                               ma97_umax = 0.5                   yes
                                max_iter = 1000                  yes
                    max_refinement_steps = 20                    yes
                    min_refinement_steps = 5                     yes
                                 mu_init = 1e-06                 yes
           mu_superlinear_decrease_power = 1.25                  yes
                   nlp_scaling_min_value = 1e-08                 yes
                        option_file_name = Preset_Case:_740_NCP.opt  yes
                             output_file = ./tmp/Preset_Case:_740_NCP.output  yes
                      print_user_options = yes                   yes
        required_infeasibility_reduction = 1                      no
                                     tol = 1e-08                 yes
                   warm_start_bound_frac = 1e-20                 yes
                   warm_start_bound_push = 1e-20                 yes
                   warm_start_init_point = yes                   yes
              warm_start_mult_bound_push = 1e-20                 yes
                warm_start_mult_init_max = 1e+40                 yes
             warm_start_slack_bound_frac = 1e-20                 yes
             warm_start_slack_bound_push = 1e-20                 yes

******************************************************************************
This program contains Ipopt, a library for large-scale nonlinear optimization.
 Ipopt is released as open source code under the Eclipse Public License (EPL).
         For more information visit http://projects.coin-or.org/Ipopt
******************************************************************************

This is Ipopt version 3.12.10, running with linear solver ma97.

Number of nonzeros in equality constraint Jacobian...:   117167
Number of nonzeros in inequality constraint Jacobian.:      213
Number of nonzeros in Lagrangian Hessian.............:    47513

Total number of variables............................:    29977
                     variables with only lower bounds:    11312
                variables with lower and upper bounds:    15135
                     variables with only upper bounds:        0
Total number of equality constraints.................:    29864
Total number of inequality constraints...............:       25
        inequality constraints with only lower bounds:        4
   inequality constraints with lower and upper bounds:        0
        inequality constraints with only upper bounds:       21

iter    objective    inf_pr   inf_du lg(mu)  ||d||  lg(rg) alpha_du alpha_pr  ls
   0 -1.8777908e-01 1.35e-01 2.00e+00  -6.0 0.00e+00    -  0.00e+00 0.00e+00   0
In iteration 0, 8 Slacks too small, adjusting variable bounds
   1 -1.8777908e-01 1.35e-01 5.36e+02  -6.0 1.18e+10    -  5.35e-14 6.23e-19h  1
   2 -1.8777708e-01 1.35e-01 5.36e+02  -6.0 1.63e+02    -  2.98e-03 2.09e-05f  1
   3 -1.8748564e-01 1.34e-01 5.36e+02  -6.0 1.63e+02    -  1.02e-02 3.13e-03h  1
   4 -1.8737909e-01 1.34e-01 5.36e+02  -6.0 2.34e+02    -  1.83e-02 1.08e-03h  1
   5 -1.8698292e-01 1.33e-01 5.36e+02  -6.0 1.61e+02    -  2.34e-02 4.90e-03h  4
   6 -1.8601332e-01 1.32e-01 5.35e+02  -6.0 1.68e+02    -  5.83e-02 1.02e-02h  4
   7 -1.8523158e-01 1.31e-01 5.31e+02  -6.0 2.09e+02    -  8.33e-03 8.28e-03h  5
   8 -1.8441400e-01 1.30e-01 5.30e+02  -6.0 2.17e+02    -  6.76e-02 8.69e-03h  5
   9 -1.8341625e-01 1.28e-01 5.25e+02  -6.0 2.60e+02    -  1.07e-02 1.04e-02h  5
iter    objective    inf_pr   inf_du lg(mu)  ||d||  lg(rg) alpha_du alpha_pr  ls
  10 -1.8283574e-01 1.28e-01 5.22e+02  -6.0 2.22e+02    -  5.02e-02 6.00e-03h  6
  11 -1.8226431e-01 1.27e-01 5.20e+02  -6.0 2.51e+02    -  2.32e-02 6.01e-03h  6
  12 -1.8161170e-01 1.26e-01 5.18e+02  -6.0 2.22e+02    -  6.78e-02 6.82e-03h  6
  13 -1.8087615e-01 1.25e-01 5.14e+02  -6.0 2.13e+02    -  1.31e-02 7.70e-03h  6
  14 -1.8011164e-01 1.24e-01 5.11e+02  -6.0 2.14e+02    -  1.02e-01 8.07e-03h  6
  15 -1.5181167e-01 2.51e+00 5.72e+03  -6.0 2.10e+02    -  2.97e-02 3.01e-01w  1
  16 -1.4611464e-01 2.28e+00 7.55e+03  -6.0 2.87e+02    -  1.15e-04 9.86e-02w  1
  17 -1.3137920e-01 2.59e+00 1.29e+04  -6.0 3.23e+02    -  2.36e-01 3.22e-01w  1
  18 -1.7922727e-01 1.23e-01 5.06e+02  -6.0 4.46e+02    -  2.97e-02 9.39e-03h  5
  19 -1.7829762e-01 1.22e-01 5.02e+02  -6.0 2.12e+02    -  6.67e-02 9.98e-03h  6
iter    objective    inf_pr   inf_du lg(mu)  ||d||  lg(rg) alpha_du alpha_pr  ls
  20 -1.7772695e-01 1.21e-01 4.98e+02  -6.0 1.87e+02    -  1.30e-01 5.95e-03h  7
  21 -1.7715462e-01 1.20e-01 4.95e+02  -6.0 2.17e+02    -  1.08e-01 6.28e-03h  7
  22 -1.7652365e-01 1.19e-01 4.93e+02  -6.0 2.19e+02    -  1.29e-01 7.00e-03h  7
  23 -1.7582235e-01 1.18e-01 4.90e+02  -6.0 2.22e+02    -  1.16e-01 7.88e-03h  7
  24 -1.7505043e-01 1.17e-01 4.86e+02  -6.0 2.27e+02    -  1.17e-01 8.78e-03h  7
  25 -1.7438948e-01 1.16e-01 4.84e+02  -6.0 2.23e+02    -  1.73e-01 7.43e-03h  4
  26 -1.7390888e-01 1.16e-01 4.80e+02  -6.0 2.41e+02    -  1.91e-01 5.67e-03h  5
  27 -1.7327750e-01 1.15e-01 4.75e+02  -6.0 2.48e+02    -  1.19e-01 7.59e-03h  5
  28 -1.5869558e-01 6.17e-01 5.40e+02  -6.0 2.66e+02    -  1.46e-01 1.78e-01w  1
  29 -1.5689406e-01 6.03e-01 9.02e+02  -6.0 5.66e+01  -2.0 3.44e-03 2.28e-02w  1
iter    objective    inf_pr   inf_du lg(mu)  ||d||  lg(rg) alpha_du alpha_pr  ls
  30 -1.5623659e-01 5.97e-01 9.35e+02  -6.0 5.64e+01  -2.5 6.30e-02 1.00e-02w  1
  31 -1.7282182e-01 1.14e-01 4.70e+02  -6.0 5.93e+02    -  1.46e-01 5.57e-03h  5
  32 -1.7214946e-01 1.13e-01 4.67e+02  -6.0 5.96e+01  -3.0 3.30e-02 7.13e-03h  5
  33 -1.7169558e-01 1.13e-01 4.66e+02  -6.0 4.69e+01  -2.5 7.23e-02 5.06e-03h  4
  34 -1.7145064e-01 1.13e-01 4.64e+02  -6.0 6.53e+01  -3.0 6.70e-03 3.25e-03h  1
  35 -1.7111202e-01 1.12e-01 4.62e+02  -6.0 3.28e+02    -  9.14e-05 4.69e-03h  1
  36 -1.7110231e-01 1.12e-01 4.62e+02  -6.0 4.87e+01  -2.6 2.80e-04 1.11e-04h  1
  37 -1.7106571e-01 1.12e-01 4.61e+02  -6.0 4.95e+03    -  5.38e-03 1.59e-04h  3
  38 -1.7018453e-01 1.11e-01 4.55e+02  -6.0 3.34e+02    -  1.94e-02 1.20e-02H  1
  39 -1.6973179e-01 1.10e-01 4.55e+02  -6.0 6.01e+01  -3.1 4.56e-02 4.43e-03h  5
iter    objective    inf_pr   inf_du lg(mu)  ||d||  lg(rg) alpha_du alpha_pr  ls
  40 -1.6921886e-01 1.10e-01 4.52e+02  -6.0 5.47e+01  -2.6 4.15e-03 5.68e-03h  6
  41 -1.6885374e-01 1.09e-01 4.50e+02  -6.0 4.72e+01  -2.2 1.20e-02 3.95e-03h  3
  42 -1.6837501e-01 1.08e-01 4.48e+02  -6.0 4.93e+01  -2.7 6.97e-03 5.62e-03h  1
  43 -1.6804446e-01 1.08e-01 4.45e+02  -6.0 3.82e+02    -  2.92e-03 5.61e-03h  1
  44 -1.6804436e-01 1.08e-01 4.45e+02  -6.0 4.67e+01  -2.3 2.63e-07 1.02e-06h  2
  45r-1.6804436e-01 1.08e-01 9.99e+02  -1.0 0.00e+00  -2.7 0.00e+00 2.20e-07R  2
  46r-1.6804432e-01 1.08e-01 9.99e+02  -1.0 6.68e+06    -  2.96e-07 1.83e-10f  2
  47r-1.6789481e-01 1.08e-01 9.99e+02  -1.0 1.08e+04    -  2.62e-05 1.92e-05f  1
  48 -1.6789020e-01 1.08e-01 4.79e+02  -6.0 2.37e+02    -  2.70e-05 1.24e-04h  1
  49 -1.6774663e-01 1.08e-01 2.12e+04  -6.0 2.37e+02    -  2.76e-02 1.70e-03h  1
iter    objective    inf_pr   inf_du lg(mu)  ||d||  lg(rg) alpha_du alpha_pr  ls
  50 -1.6710395e-01 1.07e-01 9.16e+04  -6.0 2.39e+02    -  1.83e-03 7.68e-03h  3
  51 -1.6641747e-01 1.06e-01 9.32e+04  -6.0 2.41e+02    -  2.35e-01 8.29e-03h  3
  52 -1.6569729e-01 1.05e-01 9.11e+04  -6.0 2.59e+02    -  1.85e-02 8.88e-03h  6
  53 -1.6502797e-01 1.04e-01 9.07e+04  -6.0 2.62e+02    -  9.54e-02 8.39e-03h  6
  54 -1.6420724e-01 1.03e-01 8.95e+04  -6.0 2.48e+02    -  4.80e-02 1.01e-02h  3
  55 -1.6365271e-01 1.02e-01 8.89e+04  -6.0 2.52e+02    -  1.09e-02 7.00e-03h  3
  56 -1.6300947e-01 1.01e-01 8.83e+04  -6.0 2.60e+02    -  1.15e-01 8.09e-03h  2
  57 -1.6242410e-01 1.01e-01 8.76e+04  -6.0 2.74e+02    -  1.93e-02 7.43e-03h  1
  58 -1.6170336e-01 9.97e-02 8.67e+04  -6.0 2.64e+02    -  1.70e-01 9.06e-03h  5
  59 -1.6104871e-01 9.89e-02 8.60e+04  -6.0 2.83e+02    -  4.56e-02 8.36e-03h  5
iter    objective    inf_pr   inf_du lg(mu)  ||d||  lg(rg) alpha_du alpha_pr  ls
  60 -1.6044982e-01 9.81e-02 8.55e+04  -6.0 2.92e+02    -  2.35e-01 7.70e-03h  5
  61 -1.5990074e-01 9.74e-02 8.48e+04  -6.0 3.21e+02    -  4.56e-02 7.15e-03h  5
  62 -1.5937854e-01 9.68e-02 8.41e+04  -6.0 3.29e+02    -  3.37e-01 6.83e-03h  5
  63 -1.5906165e-01 9.64e-02 8.38e+04  -6.0 4.75e+02    -  1.26e-02 3.40e-03h  5
  64 -1.5846314e-01 9.57e-02 8.34e+04  -6.0 3.96e+02    -  2.76e-01 7.62e-03h  5
  65 -1.5766176e-01 9.48e-02 8.25e+04  -6.0 6.18e+01  -3.2 7.29e-02 9.92e-03h  5
  66 -1.5704451e-01 9.40e-02 8.18e+04  -6.0 6.33e+01  -3.7 2.17e-01 7.72e-03h  6
  67 -1.5631105e-01 9.32e-02 8.11e+04  -6.0 7.29e+01  -4.2 7.10e-02 8.24e-03h  4
  68 -1.2187002e-01 6.47e+00 4.69e+04  -6.0 6.62e+01  -3.7 1.16e-01 4.21e-01w  1
  69 -1.2123164e-01 6.40e+00 4.64e+04  -6.0 8.33e+01  -3.3 5.32e-02 1.08e-02w  1
iter    objective    inf_pr   inf_du lg(mu)  ||d||  lg(rg) alpha_du alpha_pr  ls
  70 -1.2087705e-01 5.84e+00 4.42e+04  -6.0 2.69e+02  -3.8 5.08e-02 4.73e-02w  1
  71 -1.5523477e-01 9.20e-02 8.01e+04  -6.0 5.89e+01  -3.4 1.16e-01 1.32e-02h  5
  72 -1.5452759e-01 9.12e-02 7.94e+04  -6.0 6.69e+01  -3.8 2.67e-01 8.46e-03h  5
  73 -1.5379266e-01 9.04e-02 7.87e+04  -6.0 6.41e+01  -3.4 9.96e-03 9.14e-03h  6
  74 -1.5352918e-01 9.01e-02 7.84e+04  -6.0 6.84e+01  -3.9 2.18e-01 2.85e-03h  3
  75 -1.5314434e-01 8.97e-02 7.81e+04  -6.0 6.52e+01  -3.5 2.29e-02 4.77e-03h  7
  76 -1.5291546e-01 8.95e-02 7.79e+04  -6.0 8.46e+01  -3.9 3.38e-02 2.04e-03h  2
  77 -1.5250272e-01 8.91e-02 7.75e+04  -6.0 6.57e+01  -3.5 2.88e-01 5.08e-03h  7
  78 -1.5246739e-01 8.91e-02 7.75e+04  -6.0 3.11e+02  -4.0 8.47e-03 1.50e-04h  3
  79 -1.5204632e-01 8.86e-02 7.71e+04  -6.0 6.69e+01  -3.6 5.69e-02 5.16e-03h  7
iter    objective    inf_pr   inf_du lg(mu)  ||d||  lg(rg) alpha_du alpha_pr  ls
  80 -1.5137125e-01 8.79e-02 7.65e+04  -6.0 6.34e+01  -3.1 3.29e-01 8.36e-03h  6
  81 -1.4860991e-01 8.49e-02 7.39e+04  -6.0 6.86e+01  -3.6 1.63e-01 3.34e-02w  1
  82 -1.2858729e-01 2.51e+00 5.54e+04  -6.0 6.54e+01  -3.2 1.21e-03 2.50e-01w  1
  83 -1.2856544e-01 2.51e+00 5.54e+04  -6.0 3.78e+02  -3.7 2.73e-02 7.42e-05w  1
  84 -1.5102608e-01 8.75e-02 7.61e+04  -6.0 5.25e+01  -3.2 1.63e-01 4.17e-03h  3
  85 -1.5050473e-01 8.70e-02 7.57e+04  -6.0 6.91e+01  -3.7 4.61e-01 5.95e-03h  2
  86 -1.5012714e-01 8.66e-02 7.53e+04  -6.0 6.64e+01  -3.3 5.74e-02 4.69e-03h  7
  87 -1.4980591e-01 8.63e-02 7.51e+04  -6.0 6.90e+01  -3.8 7.71e-02 3.44e-03h  1
  88 -1.4938394e-01 8.58e-02 7.47e+04  -6.0 6.68e+01  -3.3 2.05e-04 5.25e-03h  7
  89 -1.4936891e-01 8.58e-02 7.47e+04  -6.0 7.20e+01  -3.8 2.31e-01 1.46e-04h  1
iter    objective    inf_pr   inf_du lg(mu)  ||d||  lg(rg) alpha_du alpha_pr  ls
  90 -1.4891670e-01 8.53e-02 7.42e+04  -6.0 6.71e+01  -3.4 5.78e-02 5.64e-03h  7
  91r-1.4891670e-01 8.53e-02 9.99e+02  -1.1 0.00e+00  -3.9 0.00e+00 3.15e-07R  4
  92r-1.4899502e-01 8.75e-02 9.99e+02  -1.1 1.77e+06    -  1.98e-06 1.09e-05f  1
  93r-1.4898219e-01 8.71e-02 9.99e+02  -1.1 7.87e+03    -  5.92e-05 4.49e-05f  1
  94r-1.4796302e-01 8.36e-02 4.22e+03  -1.1 3.10e+03    -  2.21e-04 6.01e-04f  1
  95r-1.4569425e-01 8.02e-02 4.05e+03  -1.1 1.60e+03    -  8.36e-04 8.02e-04f  1
  96 -1.4568157e-01 7.97e-02 5.74e+03  -6.0 7.28e+02    -  1.76e-01 6.35e-03h  6
  97 -1.4570038e-01 7.94e-02 3.28e+03  -6.0 7.60e+02    -  6.36e-03 3.75e-03h  7
  98 -1.4572307e-01 7.91e-02 3.31e+03  -6.0 7.62e+02    -  1.09e-01 3.66e-03h  7
  99 -1.4580235e-01 7.86e-02 3.26e+03  -6.0 7.79e+02    -  1.51e-02 6.92e-03h  6
iter    objective    inf_pr   inf_du lg(mu)  ||d||  lg(rg) alpha_du alpha_pr  ls
 100 -1.4597846e-01 7.76e-02 3.24e+03  -6.0 7.82e+02    -  1.10e-01 1.25e-02h  5
 101 -1.4608293e-01 7.72e-02 3.21e+03  -6.0 7.87e+02    -  4.03e-02 4.84e-03h  6
 102 -1.4619056e-01 7.69e-02 3.20e+03  -6.0 7.84e+02    -  1.04e-01 4.41e-03h  6
 103 -1.4630025e-01 7.65e-02 3.18e+03  -6.0 7.68e+02    -  6.53e-02 4.01e-03h  6
 104 -1.4978878e-01 2.56e-01 2.80e+03  -6.0 7.51e+02    -  7.40e-02 1.20e-01h  1
 105 -1.5622093e-01 4.25e-01 2.65e+03  -6.0 1.26e+03    -  9.17e-02 5.17e-02h  1
 106 -1.5536902e-01 3.95e-01 2.47e+03  -6.0 5.01e+02    -  2.24e-01 6.94e-02h  4
 107 -1.5532589e-01 3.75e-01 2.34e+03  -6.0 5.34e+02    -  4.20e-01 5.28e-02h  3
 108 -1.5633950e-01 3.53e-01 2.10e+03  -6.0 6.49e+02    -  3.22e-01 9.98e-02h  2
 109 -1.5812904e-01 3.69e-01 1.92e+03  -6.0 6.59e+02    -  8.15e-02 8.53e-02h  1
iter    objective    inf_pr   inf_du lg(mu)  ||d||  lg(rg) alpha_du alpha_pr  ls
 110 -1.5986217e-01 7.79e-01 1.56e+03  -6.0 3.53e+01  -4.4 1.14e-01 1.88e-01h  1
 111 -1.6390738e-01 2.89e+00 9.75e+02  -6.0 4.29e+01  -4.8 4.60e-04 3.75e-01h  1
 112 -1.6462401e-01 2.81e+00 9.28e+02  -6.0 1.40e+02  -5.3 6.40e-02 4.84e-02h  1
 113 -1.6491726e-01 2.84e+00 8.70e+02  -6.0 6.52e+01  -5.8 7.93e-02 6.28e-02h  2
 114 -1.6549661e-01 2.86e+00 8.60e+02  -6.0 2.71e+02  -6.3 4.96e-02 1.13e-02h  1
 115 -1.7075193e-01 2.55e+00 7.06e+02  -6.0 3.26e+02  -6.7 1.77e-01 1.80e-01h  1
 116 -1.7286571e-01 2.51e+00 6.95e+02  -6.0 1.70e+03  -7.2 1.06e-02 1.55e-02h  1
 117 -1.7292842e-01 2.50e+00 6.92e+02  -6.0 2.50e+02  -6.8 4.24e-01 3.50e-03h  1
 118 -1.7486033e-01 6.06e+00 4.65e+02  -6.0 8.60e+01  -6.4 3.43e-01 3.28e-01h  1
 119 -1.7708159e-01 5.21e+00 3.98e+02  -6.0 2.02e+02  -6.8 5.87e-01 1.44e-01h  1
iter    objective    inf_pr   inf_du lg(mu)  ||d||  lg(rg) alpha_du alpha_pr  ls
 120 -1.8552867e-01 6.32e+00 3.83e+02  -6.0 4.10e+03  -7.3 5.86e-02 3.83e-02h  1
 121 -1.8655673e-01 5.90e+00 4.92e+02  -6.0 2.51e+02  -6.9 6.53e-01 7.81e-02h  1
 122 -1.8968032e-01 4.68e+00 3.17e+02  -6.0 3.36e+02  -6.5 3.24e-01 3.13e-01h  1
 123 -1.8971094e-01 4.53e+00 2.80e+02  -6.0 5.38e+01  -6.0 1.42e-01 1.19e-01h  1
 124 -1.9061240e-01 5.39e+00 2.33e+02  -6.0 1.17e+02  -6.5 4.71e-01 1.68e-01h  2
 125 -1.9073212e-01 5.51e+00 1.81e+02  -6.0 2.66e+01  -6.1 5.73e-01 2.21e-01h  1
 126 -1.9101503e-01 3.72e+00 1.23e+02  -6.0 7.40e+01  -6.6 4.17e-01 3.23e-01h  1
 127 -1.9253294e-01 3.11e+00 1.04e+02  -6.0 2.87e+02  -7.0 2.02e-01 1.56e-01h  1
 128 -1.9247817e-01 2.39e+00 7.98e+01  -6.0 3.26e+01  -6.6 1.39e-01 2.32e-01h  1
 129 -1.9184521e-01 1.17e+00 4.60e+01  -6.0 1.50e+01  -6.2 3.25e-01 5.09e-01h  1
iter    objective    inf_pr   inf_du lg(mu)  ||d||  lg(rg) alpha_du alpha_pr  ls
 130 -1.9217761e-01 1.07e+00 1.04e+02  -6.0 3.57e+01  -6.7 1.54e-01 2.81e-01h  1
 131 -1.9217758e-01 1.07e+00 1.31e+02  -6.0 6.36e+00  -2.6 8.46e-03 4.09e-05h  1
 132 -1.9213007e-01 9.96e-01 5.92e+02  -6.0 5.60e+00  -3.1 1.60e-02 7.30e-02h  1
 133 -1.9210464e-01 9.61e-01 5.64e+02  -6.0 4.62e+00  -3.6 4.92e-03 3.51e-02h  1
 134 -1.9181658e-01 5.42e-01 3.88e+02  -6.0 1.75e+00  -4.1 7.19e-03 4.28e-01h  1
 135 -1.9173245e-01 4.26e-01 3.05e+02  -6.0 1.29e+00  -4.5 3.25e-01 2.11e-01h  1
 136 -1.9164040e-01 2.15e-01 1.56e+02  -6.0 1.59e+00  -5.0 9.70e-01 4.87e-01h  1
 137 -1.9169530e-01 8.03e-02 5.58e+01  -6.0 3.87e+00  -5.5 6.20e-01 6.35e-01h  1
 138 -1.9178007e-01 6.89e-02 4.66e+01  -6.0 7.75e+00  -6.0 5.58e-01 1.69e-01h  1
 139 -1.9191177e-01 6.42e-02 4.30e+02  -6.0 1.90e+01  -6.4 4.84e-01 1.68e-01h  1
iter    objective    inf_pr   inf_du lg(mu)  ||d||  lg(rg) alpha_du alpha_pr  ls
 140 -1.9202715e-01 5.84e-02 1.44e+02  -6.0 5.63e+01  -6.9 1.00e+00 9.01e-02h  1
 141 -1.9398225e-01 5.10e-01 5.06e+02  -6.0 1.71e+02  -7.4 2.19e-01 6.62e-01h  1
 142 -1.9421053e-01 4.25e-01 6.94e+02  -6.0 7.02e+01  -7.0 1.00e+00 1.95e-01h  1
 143 -1.9646063e-01 2.91e+00 3.89e+02  -6.0 3.88e+02  -7.5 7.44e-01 4.84e-01f  1
 144 -1.9647013e-01 2.62e+00 3.71e+02  -6.0 3.96e+01  -4.3 1.61e-01 9.98e-02h  1
 145 -1.9653113e-01 2.32e+00 3.00e+03  -6.0 2.97e+00  -4.8 1.24e-04 1.15e-01h  1
 146 -1.9652786e-01 2.32e+00 3.01e+03  -6.0 3.52e+02  -2.6 3.31e-04 2.08e-04h  1
 147 -1.9663040e-01 1.39e+00 1.82e+03  -6.0 2.04e+00  -3.0 4.95e-02 3.97e-01h  1
 148 -1.9670868e-01 4.04e-01 5.37e+02  -6.0 1.19e+00  -3.5 2.00e-01 7.07e-01f  1
 149 -1.9680263e-01 5.14e-03 3.54e+00  -6.0 3.94e-01  -4.0 9.88e-01 1.00e+00f  1
iter    objective    inf_pr   inf_du lg(mu)  ||d||  lg(rg) alpha_du alpha_pr  ls
 150 -1.9685734e-01 9.08e-03 9.60e+00  -6.0 8.39e-01  -4.5 1.00e+00 3.59e-01h  1
 151 -1.9691732e-01 9.25e-03 9.79e+00  -6.0 1.29e+00  -4.9 1.00e+00 2.38e-01f  1
 152 -1.9698896e-01 1.26e-02 3.32e+01  -6.0 2.32e+00  -5.4 6.03e-01 2.75e-01h  1
 153 -1.9699016e-01 2.05e-03 3.74e+00  -6.0 6.64e-02  -3.2 1.00e+00 8.38e-01h  1
 154 -1.9699409e-01 4.61e-06 1.32e-01  -6.0 3.50e-02  -3.7 1.00e+00 1.00e+00f  1
 155 -1.9700234e-01 3.11e-05 3.22e-01  -6.0 1.14e-01  -4.1 1.00e+00 1.00e+00h  1
 156 -1.9700435e-01 1.62e-06 3.25e-01  -6.0 4.54e-02  -3.7 1.00e+00 1.00e+00h  1
 157 -1.9700513e-01 1.63e-07 5.95e-02  -6.0 1.72e-02  -3.3 1.00e+00 1.00e+00h  1
 158 -1.9700783e-01 4.47e-06 6.60e-01  -6.0 5.17e-02  -3.8 1.00e+00 1.00e+00h  1
 159 -1.9700958e-01 1.06e-05 3.04e+01  -6.0 6.44e-01  -4.3 1.04e-01 6.53e-02h  2
iter    objective    inf_pr   inf_du lg(mu)  ||d||  lg(rg) alpha_du alpha_pr  ls
 160 -1.9703648e-01 5.16e-04 1.64e+03  -6.0 6.41e-01  -4.7 3.42e-01 1.00e+00H  1
 161 -1.9703933e-01 5.23e-04 1.56e+03  -6.0 3.27e+00  -5.2 3.16e-02 2.09e-02h  2
 162 -1.9703932e-01 5.16e-04 2.06e+03  -6.0 2.03e-02  -0.3 9.29e-01 1.16e-02h  1
 163 -1.9703828e-01 1.66e-08 3.42e+00  -6.0 4.52e-04  -0.7 1.00e+00 1.00e+00f  1
 164 -1.9703843e-01 2.98e-10 7.07e-02  -6.0 2.03e-04  -1.2 1.00e+00 1.00e+00h  1
 165 -1.9703843e-01 4.18e-10 5.36e-05  -6.0 4.35e-04  -1.7 1.00e+00 1.00e+00h  1
 166 -1.9703847e-01 3.54e-09 6.31e-04  -6.0 1.31e-03  -2.2 1.00e+00 1.00e+00h  1
 167 -1.9703863e-01 3.16e-08 5.39e-03  -6.0 3.91e-03  -2.6 1.00e+00 1.00e+00h  1
 168 -1.9703915e-01 2.84e-07 4.81e-02  -6.0 1.17e-02  -3.1 1.00e+00 1.00e+00h  1
 169 -1.9704078e-01 2.57e-06 4.26e-01  -6.0 3.53e-02  -3.6 1.00e+00 1.00e+00h  1
iter    objective    inf_pr   inf_du lg(mu)  ||d||  lg(rg) alpha_du alpha_pr  ls
 170 -1.9704569e-01 2.29e-05 3.57e+00  -6.0 1.06e-01  -4.1 1.00e+00 1.00e+00h  1
 171 -1.9706034e-01 1.98e-04 2.52e+01  -6.0 3.18e-01  -4.6 1.00e+00 1.00e+00h  1
 172 -1.9710354e-01 1.65e-03 1.17e+02  -6.0 9.28e-01  -5.0 1.00e+00 1.00e+00h  1
 173 -1.9718729e-01 6.87e-03 1.38e+02  -6.0 2.39e+00  -5.5 1.00e+00 6.72e-01h  1
 174 -1.9746242e-01 1.15e-01 4.46e+02  -6.0 6.75e+00  -6.0 1.00e+00 1.00e+00f  1
 175 -1.9835388e-01 5.64e-01 5.21e+01  -6.0 2.08e+01  -6.5 1.00e+00 1.00e+00h  1
 176 -1.9909992e-01 9.60e-01 7.35e+01  -6.0 6.46e+01  -6.9 5.60e-01 2.80e-01h  1
 177 -2.0127965e-01 1.28e+00 7.25e+01  -6.0 1.85e+02  -7.4 1.00e+00 9.32e-01f  1
 178 -2.0288209e-01 1.79e+00 1.08e+02  -6.0 4.62e+02  -7.9 5.69e-01 2.90e-01h  1
 179 -2.1192401e-01 1.52e+01 2.34e+01  -6.0 9.90e+02  -8.4 4.90e-01 1.00e+00h  1
iter    objective    inf_pr   inf_du lg(mu)  ||d||  lg(rg) alpha_du alpha_pr  ls
 180 -2.1251915e-01 3.73e+00 4.69e+01  -6.0 2.37e+02  -7.9 6.38e-02 7.99e-01h  1
 181 -2.1323821e-01 3.29e+00 1.49e+01  -6.0 5.67e+02  -8.4 6.42e-01 1.50e-01h  1
 182 -2.1464109e-01 9.50e-01 6.23e+00  -6.0 2.37e+02  -8.0 7.32e-01 1.00e+00h  1
 183 -2.1538007e-01 9.68e-01 1.46e+01  -6.0 6.73e+02  -8.5 4.88e-01 1.51e-01h  1
 184 -2.1554174e-01 9.49e-01 4.27e+01  -6.0 1.03e+03  -9.0 1.00e+00 2.31e-02h  1
 185 -2.1910893e-01 3.19e+00 2.15e+00  -6.0 4.24e+02  -8.5 9.80e-01 1.00e+00h  1
 186 -2.2214513e-01 7.28e+00 1.74e+01  -6.0 1.07e+03  -9.0 1.65e-01 5.52e-01h  1
 187 -2.2289595e-01 1.45e+01 3.20e+01  -6.0 6.40e+03  -8.6 1.46e-06 4.18e-02H  1
 188 -2.2318618e-01 1.44e+01 2.90e+03  -6.0 1.28e+04  -9.1 2.91e-02 9.80e-03h  1
 189 -2.2327239e-01 5.00e+00 9.05e+04  -6.0 1.58e+02  -7.7 4.26e-03 6.64e-01h  1
iter    objective    inf_pr   inf_du lg(mu)  ||d||  lg(rg) alpha_du alpha_pr  ls
 190 -2.2392841e-01 1.13e+00 1.81e+03  -6.0 1.03e+02  -7.3 6.80e-01 1.00e+00h  1
 191 -2.2394196e-01 1.13e+00 1.81e+03  -6.0 2.77e+03  -6.9 1.64e-02 3.26e-04h  1
 192 -2.2432350e-01 8.94e-01 1.42e+03  -6.0 5.22e+01  -7.4 1.88e-01 2.13e-01f  1
 193 -2.2453245e-01 1.01e+00 1.34e+03  -6.0 1.01e+02  -7.8 1.19e-01 6.06e-02h  1
 194 -2.2460627e-01 9.01e-01 1.20e+03  -6.0 4.36e+00  -5.6 7.18e-01 1.18e-01h  1
 195 -2.2522471e-01 2.56e+00 3.98e+01  -6.0 7.43e+00  -6.1 1.00e+00 1.00e+00h  1
 196 -2.2526077e-01 2.42e+00 3.69e+01  -6.0 1.35e+01  -6.6 8.48e-02 7.79e-02h  1
 197 -2.2526404e-01 2.08e+00 2.62e+01  -6.0 6.35e+00  -6.1 6.95e-01 1.43e-01h  1
 198 -2.2535665e-01 5.32e-01 7.28e+00  -6.0 7.20e+00  -6.6 1.00e+00 7.44e-01h  1
 199 -2.2543508e-01 6.68e-01 6.19e+00  -6.0 2.19e+01  -7.1 4.02e-01 3.10e-01h  1
iter    objective    inf_pr   inf_du lg(mu)  ||d||  lg(rg) alpha_du alpha_pr  ls
 200 -2.2595850e-01 9.50e+00 2.39e+01  -6.0 5.79e+01  -7.6 9.34e-01 8.00e-01h  1
 201 -2.2703033e-01 1.64e+00 3.04e+01  -6.0 1.28e+02  -8.0 1.00e+00 1.00e+00h  1
 202 -2.2915437e-01 2.37e+00 5.63e+01  -6.0 3.14e+02  -8.5 3.57e-01 1.00e+00h  1
 203 -2.3009134e-01 2.19e+00 1.06e+02  -6.0 1.45e+03  -9.0 3.10e-01 1.78e-01h  1
 204 -2.3053076e-01 1.21e+00 7.17e+01  -6.0 3.18e+02  -8.6 5.68e-01 4.50e-01h  1
 205 -2.3089764e-01 1.64e-01 1.05e+01  -6.0 1.11e+02  -8.1 1.00e+00 1.00e+00h  1
 206 -2.3117889e-01 1.69e-01 2.67e+01  -6.0 3.14e+02  -8.6 7.70e-01 2.28e-01h  1
 207 -2.3418345e-01 1.67e+01 3.07e+01  -6.0 1.05e+03  -9.1 4.94e-01 1.00e+00h  1
 208 -2.3467756e-01 1.14e+01 2.22e+01  -6.0 4.68e+02  -8.7 4.20e-01 3.46e-01h  1
 209 -2.3527730e-01 4.94e-01 3.18e+00  -6.0 1.64e+02  -8.2 1.00e+00 1.00e+00h  1
iter    objective    inf_pr   inf_du lg(mu)  ||d||  lg(rg) alpha_du alpha_pr  ls
 210 -2.3644523e-01 2.95e+00 1.44e+01  -6.0 7.96e+02  -8.7 4.75e-01 5.14e-01h  1
 211 -2.3770003e-01 1.59e+00 9.25e+00  -6.0 3.08e+02  -8.3 1.00e+00 1.00e+00h  1
 212 -2.4044522e-01 9.81e+00 5.99e+01  -6.0 2.39e+03  -8.8 1.76e-01 3.02e-01h  1
 213 -2.4090728e-01 8.72e+00 4.94e+01  -6.0 5.85e+02  -8.3 4.22e-01 1.20e-01h  1
 214 -2.4165642e-01 8.46e+00 4.78e+01  -6.0 2.03e+03  -8.8 1.59e-02 6.36e-02h  1
 215 -2.4197619e-01 7.70e+00 4.35e+01  -6.0 5.09e+02  -8.4 1.57e-01 9.39e-02h  1
 216 -2.4327210e-01 8.48e+00 6.60e+01  -6.0 1.39e+04  -8.9 5.17e-03 1.68e-02h  1
 217 -2.4583124e-01 3.29e+01 1.91e+02  -6.0 1.15e+03  -8.4 7.07e-02 3.66e-01h  1
 218 -2.4617374e-01 2.84e+01 2.38e+02  -6.0 5.57e+02  -8.9 1.06e-03 7.07e-02h  1
 219 -2.4639203e-01 2.31e+01 1.48e+02  -6.0 1.55e+02  -8.5 1.54e-02 2.66e-01h  1
iter    objective    inf_pr   inf_du lg(mu)  ||d||  lg(rg) alpha_du alpha_pr  ls
 220 -2.4636527e-01 2.30e+01 1.48e+02  -6.0 3.24e+02  -6.3 4.52e-03 3.92e-03h  1
 221 -2.4628754e-01 2.02e+01 3.41e+02  -6.0 9.68e+01  -6.7 8.88e-02 8.64e-02h  1
 222 -2.4640534e-01 1.93e+01 4.37e+02  -6.0 8.01e+02  -7.2 8.53e-03 9.29e-03h  1
 223 -2.4627990e-01 1.84e+01 4.73e+02  -6.0 4.29e+02  -7.7 2.41e-02 4.40e-02h  1
 224 -2.4630604e-01 1.83e+01 4.71e+02  -6.0 2.15e+03  -8.2 6.21e-04 2.20e-03h  2
 225 -2.4631410e-01 1.83e+01 3.55e+02  -6.0 4.79e+02  -8.6 2.83e-01 4.82e-03h  1
 226 -2.4650367e-01 1.76e+01 3.46e+02  -6.0 3.24e+03  -9.1 2.01e-02 3.88e-02h  1
 227 -2.4662713e-01 1.63e+01 3.39e+02  -6.0 2.94e+03  -8.7 3.08e-03 8.23e-02h  1
 228 -2.4688188e-01 1.49e+01 3.20e+02  -6.0 2.93e+03  -9.2 3.62e-02 9.19e-02h  1
 229 -2.4713372e-01 1.16e+01 2.75e+02  -6.0 2.82e+03  -8.8 4.07e-02 2.47e-01h  1
iter    objective    inf_pr   inf_du lg(mu)  ||d||  lg(rg) alpha_du alpha_pr  ls
 230 -2.4737205e-01 1.05e+01 3.19e+02  -6.0 1.88e+03  -7.4 6.96e-03 1.62e-02h  1
 231 -2.4737209e-01 1.05e+01 3.19e+02  -6.0 2.16e+02  -7.9 2.92e-05 7.55e-05h  1
 232 -2.4727560e-01 1.38e+01 6.78e+02  -6.0 1.78e+02  -8.4 2.21e-04 1.00e+00f  1
 233 -2.4726330e-01 1.29e+01 6.33e+02  -6.0 5.95e+00  -3.4 9.75e-02 5.99e-02h  1
 234 -2.4717485e-01 1.05e+01 5.16e+02  -6.0 4.56e+00  -3.0 1.28e-02 1.91e-01h  1
 235 -2.4699036e-01 3.63e+00 2.29e+02  -6.0 4.95e+00  -3.5 1.66e-01 5.53e-01h  1
 236 -2.4688887e-01 2.45e+00 1.64e+02  -6.0 4.39e+00  -4.0 3.18e-01 3.34e-01h  1
 237 -2.4700564e-01 1.75e+00 9.79e+01  -6.0 1.76e+00  -4.4 7.00e-01 2.75e-01f  1
 238 -2.4709856e-01 1.73e+00 9.68e+01  -6.0 5.93e+01  -4.9 1.37e-02 1.12e-02h  1
 239 -2.4725651e-01 1.51e+00 8.33e+01  -6.0 1.38e+01  -5.4 2.84e-01 1.17e-01h  1
iter    objective    inf_pr   inf_du lg(mu)  ||d||  lg(rg) alpha_du alpha_pr  ls
 240 -2.4728122e-01 1.28e+00 7.52e+01  -6.0 9.15e-01  -5.0 1.00e+00 1.52e-01h  1
 241 -2.4729241e-01 9.44e-01 5.52e+01  -6.0 2.12e+00  -5.4 6.83e-01 2.58e-01h  1
 242 -2.4730627e-01 6.00e-01 3.54e+01  -6.0 2.99e+00  -5.9 1.00e+00 3.68e-01h  1
 243 -2.4739449e-01 1.82e-01 1.91e+00  -6.0 4.85e+00  -6.4 1.00e+00 1.00e+00h  1
 244 -2.4741514e-01 4.45e-02 2.25e-01  -6.0 6.59e+00  -6.9 8.35e-01 1.00e+00h  1
 245 -2.4733373e-01 1.28e+00 1.27e+02  -6.0 2.01e+01  -7.4 1.00e+00 1.00e+00h  1
 246 -2.4750054e-01 3.62e-01 1.46e+01  -6.0 5.60e+01  -7.8 1.00e+00 1.00e+00h  1
 247 -2.4782731e-01 3.13e-01 3.56e+00  -6.0 1.34e+02  -8.3 1.00e+00 1.00e+00h  1
 248 -2.4841413e-01 1.31e+00 4.36e+00  -6.0 2.26e+02  -8.8 5.72e-01 1.00e+00h  1
 249 -2.4857522e-01 1.55e+00 1.01e+01  -6.0 4.82e+02  -9.3 1.00e+00 1.77e-01h  1
iter    objective    inf_pr   inf_du lg(mu)  ||d||  lg(rg) alpha_du alpha_pr  ls
 250 -2.4910741e-01 1.56e+00 5.89e+00  -6.0 9.50e+02  -9.7 4.86e-01 4.24e-01h  1
 251 -2.4963764e-01 4.17e+00 8.41e+00  -6.0 5.31e+02  -9.3 9.66e-02 1.00e+00h  1
 252 -2.4962853e-01 2.65e-02 1.06e+00  -6.0 1.69e+01  -8.0 1.00e+00 1.00e+00h  1
 253 -2.4967301e-01 1.61e-02 2.84e-01  -6.0 4.80e+01  -8.5 1.00e+00 1.00e+00h  1
 254 -2.4976539e-01 1.30e-01 5.61e-02  -6.0 1.17e+02  -8.9 1.00e+00 1.00e+00h  1
 255 -2.4991884e-01 8.44e-01 4.57e-01  -6.0 2.36e+02  -9.4 1.00e+00 1.00e+00h  1
 256 -2.5002910e-01 6.18e+00 1.23e+01  -6.0 7.27e+02  -9.9 2.88e-01 1.00e+00h  1
 257 -2.5012408e-01 7.24e+00 1.16e+01  -6.0 9.73e+04    -  2.72e-02 1.55e-02h  1
 258 -2.5015928e-01 6.81e+00 1.13e+01  -6.0 2.86e+03 -10.4 3.39e-03 1.13e-01h  1
 259 -2.5018809e-01 6.43e+00 4.56e+01  -6.0 2.38e+03 -10.8 5.11e-04 4.00e-01H  1
iter    objective    inf_pr   inf_du lg(mu)  ||d||  lg(rg) alpha_du alpha_pr  ls
 260 -2.5040234e-01 7.60e+00 4.26e+01  -6.0 6.40e+03 -10.4 5.39e-02 8.10e-02h  1
 261 -2.5040678e-01 7.45e+00 3.80e+01  -6.0 3.63e+02  -9.1 3.33e-01 2.02e-02h  1
 262 -2.5040366e-01 3.24e+01 5.62e+01  -6.0 1.47e+03  -9.6 1.95e-01 1.00e+00h  1
 263 -2.5055924e-01 1.91e+01 3.99e+01  -6.0 1.20e+03 -10.0 3.39e-01 4.24e-01h  1
 264 -2.5062795e-01 1.64e+01 3.52e+01  -6.0 2.98e+03 -10.5 2.31e-01 1.48e-01h  1
 265 -2.5066571e-01 5.30e+01 6.14e+01  -6.0 1.81e+03 -10.1 2.22e-01 1.00e+00h  1
 266 -2.5073775e-01 6.88e+00 8.42e+01  -6.0 2.04e+03    -  4.54e-01 1.00e+00h  1
 267 -2.5079827e-01 9.79e+00 5.63e+01  -6.0 2.00e+03    -  7.93e-02 1.00e+00h  1
 268 -2.5077695e-01 7.31e+00 4.10e+01  -6.0 8.70e+02    -  5.09e-01 2.84e-01h  1
 269 -2.5082202e-01 3.28e+00 6.83e+01  -6.0 4.90e+02    -  3.64e-01 8.18e-01h  1
iter    objective    inf_pr   inf_du lg(mu)  ||d||  lg(rg) alpha_du alpha_pr  ls
 270 -2.5079147e-01 2.31e+00 3.70e+01  -6.0 1.01e+03    -  1.00e+00 9.67e-01h  1
 271 -2.5073343e-01 1.38e+00 1.00e+01  -6.0 3.35e+02    -  1.00e+00 1.00e+00h  1
 272 -2.5073493e-01 7.12e-01 1.25e+01  -6.0 6.73e+02    -  1.00e+00 5.00e-01h  2
 273 -2.5074674e-01 6.69e-01 4.97e-01  -6.0 3.00e+02 -10.6 1.00e+00 1.00e+00h  1
 274 -2.5076234e-01 8.17e-02 5.18e-02  -6.0 6.91e+01  -9.2 1.00e+00 1.00e+00h  1
 275 -2.5077959e-01 4.64e-01 3.10e+01  -6.0 4.71e+02  -9.7 1.00e+00 3.25e-01h  2
 276 -2.5080228e-01 8.39e-01 2.64e+02  -6.0 3.00e+03 -10.2 6.33e-01 5.07e-02h  2
 277 -2.5083532e-01 2.13e+00 2.56e+01  -6.0 7.48e+02    -  1.00e+00 6.97e-01h  1
 278 -2.5090907e-01 3.17e+00 1.36e+02  -6.0 1.09e+03  -9.8 9.20e-01 2.87e-01h  1
 279 -2.5098217e-01 5.82e+00 6.40e+02  -6.0 1.25e+03    -  1.28e-01 3.88e-01h  1
iter    objective    inf_pr   inf_du lg(mu)  ||d||  lg(rg) alpha_du alpha_pr  ls
 280 -2.5099785e-01 5.95e+00 2.59e+02  -6.0 2.48e+03    -  3.22e-01 7.57e-02h  1
 281 -2.5101972e-01 4.81e+00 6.88e+03  -6.0 1.23e+02  -7.5 9.38e-03 1.91e-01h  1
 282 -2.5105209e-01 9.07e+00 4.76e+03  -6.0 1.91e+03    -  3.37e-01 3.13e-01h  1
 283 -2.5108989e-01 8.73e+00 3.45e+03  -6.0 1.45e+03    -  8.09e-01 2.32e-01h  1
 284 -2.5113021e-01 7.56e+00 2.71e+03  -6.0 9.86e+02    -  8.45e-02 2.04e-01h  1
 285 -2.5115693e-01 7.50e+00 2.23e+03  -6.0 1.66e+03    -  9.13e-02 1.70e-01h  1
 286 -2.5116089e-01 7.35e+00 2.18e+03  -6.0 1.82e+03    -  4.59e-02 2.25e-02h  1
 287 -2.5120233e-01 8.46e+00 1.85e+04  -6.0 1.71e+03    -  3.36e-02 2.62e-01f  1
 288 -2.5123499e-01 7.81e+00 1.50e+04  -6.0 1.37e+03    -  1.47e-01 1.68e-01h  1
 289 -2.5124415e-01 7.75e+00 1.39e+04  -6.0 2.61e+03    -  2.97e-01 7.01e-02h  1
iter    objective    inf_pr   inf_du lg(mu)  ||d||  lg(rg) alpha_du alpha_pr  ls
 290 -2.5128106e-01 6.33e+00 1.13e+04  -6.0 6.82e+02    -  3.61e-02 1.84e-01h  1
 291 -2.5132752e-01 4.51e+00 8.00e+03  -6.0 1.71e+01  -8.0 1.86e-01 2.88e-01h  1
 292 -2.5135484e-01 6.31e+00 6.58e+03  -6.0 2.39e+03    -  1.60e-01 1.76e-01h  3
 293 -2.5137920e-01 4.97e+00 5.18e+03  -6.0 5.47e+02    -  1.59e-01 2.13e-01h  1
 294 -2.5141417e-01 3.33e+00 3.47e+03  -6.0 6.60e+02    -  2.88e-01 3.30e-01h  1
 295 -2.5139026e-01 2.27e-02 1.82e+03  -6.0 7.41e+01    -  3.22e-02 1.00e+00h  1
 296 -2.5139022e-01 9.53e-02 1.54e+03  -6.0 3.36e+02    -  1.00e+00 1.41e-01h  2
 297 -2.5139034e-01 2.98e-01 1.43e+03  -6.0 5.98e+02    -  1.00e+00 7.13e-02h  2
 298 -2.5138801e-01 5.01e-01 2.69e+02  -6.0 1.95e+02    -  1.00e+00 8.13e-01h  1
 299 -2.5138541e-01 2.87e+00 2.03e-01  -6.0 4.42e+02    -  1.00e+00 1.00e+00h  1
iter    objective    inf_pr   inf_du lg(mu)  ||d||  lg(rg) alpha_du alpha_pr  ls
 300 -2.5137505e-01 8.29e+00 1.86e+01  -6.0 1.58e+03    -  1.00e+00 4.30e-01h  1
 301 -2.5133811e-01 1.53e+01 1.19e+01  -6.0 2.29e+03    -  3.86e-01 3.71e-01h  2
 302 -2.5137448e-01 2.98e-01 3.99e+00  -6.0 1.08e+03    -  9.08e-01 1.00e+00H  1
 303 -2.5137137e-01 1.23e-03 1.83e-02  -6.0 9.63e+00  -8.5 1.00e+00 1.00e+00h  1
 304 -2.5135109e-01 7.52e+00 5.01e-01  -6.0 7.28e+02    -  1.00e+00 1.00e+00h  1
 305 -2.5134101e-01 5.55e-03 2.18e-03  -6.0 2.76e+01    -  1.00e+00 1.00e+00h  1
 306 -2.5134106e-01 7.59e-06 6.53e-06  -6.0 7.38e-01    -  1.00e+00 1.00e+00h  1
 307 -2.5155715e-01 4.11e-01 4.20e+00  -7.5 3.81e+03    -  1.08e-01 1.12e-01h  1
 308 -2.5175643e-01 1.04e+00 3.42e+01  -7.5 4.02e+03    -  2.53e-01 1.13e-01h  1
 309 -2.5183538e-01 9.34e-01 1.04e+02  -7.5 2.11e+02  -9.0 5.22e-01 1.33e-01h  1
iter    objective    inf_pr   inf_du lg(mu)  ||d||  lg(rg) alpha_du alpha_pr  ls
 310 -2.5243998e-01 9.93e+00 6.50e+01  -7.5 1.41e+04    -  1.56e-02 2.12e-01h  1
 311 -2.5304759e-01 1.06e+01 3.34e+01  -7.5 3.68e+03    -  1.71e-01 6.09e-01h  1
 312 -2.5309254e-01 1.02e+01 3.17e+01  -7.5 1.09e+04    -  3.99e-02 3.28e-02h  1
 313 -2.5314143e-01 9.11e+00 1.10e+01  -7.5 2.99e+03    -  4.59e-01 1.20e-01h  1
 314 -2.5327700e-01 6.77e+00 6.18e+00  -7.5 3.19e+03    -  2.38e-01 3.32e-01h  1
 315 -2.5334079e-01 4.95e+00 9.81e+00  -7.5 1.29e+02  -9.4 8.65e-02 2.71e-01h  1
 316 -2.5339282e-01 3.94e+00 3.98e+00  -7.5 5.01e+02  -9.9 3.72e-01 2.07e-01f  1
 317 -2.5352107e-01 6.41e+00 3.91e+00  -7.5 1.96e+03 -10.4 2.42e-01 2.52e-01h  1
 318 -2.5378273e-01 1.87e+01 6.16e+00  -7.5 2.20e+03    -  5.37e-02 3.93e-01h  1
 319 -2.5391865e-01 1.78e+01 6.18e+00  -7.5 2.14e+03 -10.0 5.48e-02 1.14e-01h  1
iter    objective    inf_pr   inf_du lg(mu)  ||d||  lg(rg) alpha_du alpha_pr  ls
 320 -2.5438334e-01 2.10e+01 1.12e+01  -7.5 1.07e+03    -  1.81e-02 8.73e-01h  1
 321 -2.5440077e-01 2.06e+01 1.06e+01  -7.5 1.77e+03    -  5.55e-02 2.16e-02h  1
 322 -2.5468173e-01 3.40e+01 1.01e+01  -7.5 5.13e+03    -  5.07e-02 1.70e-01h  1
 323 -2.5473227e-01 3.34e+01 9.93e+00  -7.5 4.51e+03    -  1.73e-02 4.03e-02h  1
 324 -2.5483640e-01 2.95e+01 9.75e+00  -7.5 1.28e+03    -  2.34e-02 1.45e-01h  1
 325 -2.5499587e-01 1.95e+01 8.59e+00  -7.5 7.03e+02    -  1.29e-01 3.82e-01h  1
 326 -2.5500043e-01 1.94e+01 8.58e+00  -7.5 6.37e+03    -  1.17e-03 2.06e-03h  1
 327 -2.5507756e-01 1.57e+01 6.59e+00  -7.5 6.86e+02    -  2.31e-01 2.21e-01h  1
 328 -2.5512251e-01 1.17e+01 4.75e+00  -7.5 2.19e+02    -  2.80e-01 2.62e-01h  1
 329 -2.5517521e-01 1.98e+00 3.63e+00  -7.5 1.75e+02    -  2.46e-01 8.31e-01h  1
iter    objective    inf_pr   inf_du lg(mu)  ||d||  lg(rg) alpha_du alpha_pr  ls
 330 -2.5516407e-01 1.36e+00 4.08e+02  -7.5 1.43e+02    -  1.99e-03 3.15e-01h  1
 331 -2.5517477e-01 4.44e-02 1.34e+01  -7.5 3.79e+01  -7.7 6.90e-01 9.67e-01h  1
 332 -2.5517486e-01 4.36e-02 1.32e+01  -7.5 9.29e+00  -8.2 3.74e-01 1.90e-02h  1
 333 -2.5517295e-01 2.11e-01 1.27e+01  -7.5 2.87e+03    -  2.54e-02 3.75e-02f  1
 334 -2.5517449e-01 3.15e-02 1.87e+00  -7.5 7.90e+00  -8.7 7.41e-02 8.51e-01f  1
 335 -2.5517330e-01 2.14e-02 9.04e-01  -7.5 3.58e+01    -  1.00e+00 5.22e-01f  1
 336 -2.5517354e-01 1.49e-01 5.02e-01  -7.5 1.96e+02    -  5.23e-01 4.45e-01f  1
 337 -2.5517283e-01 3.74e-02 2.02e-03  -7.5 4.58e+01    -  1.00e+00 1.00e+00h  1
 338 -2.5517288e-01 1.70e-04 6.41e-06  -7.5 3.11e+00    -  1.00e+00 1.00e+00h  1
 339 -2.5517288e-01 3.94e-07 1.13e-08  -7.5 1.48e-01    -  1.00e+00 1.00e+00h  1
iter    objective    inf_pr   inf_du lg(mu)  ||d||  lg(rg) alpha_du alpha_pr  ls
 340 -2.5518316e-01 3.43e-02 5.12e+00  -9.0 2.23e+02    -  8.44e-01 2.86e-01h  1
 341 -2.5518637e-01 4.26e-02 5.62e+00  -9.0 1.88e+02    -  1.00e+00 1.43e-01h  1
 342 -2.5518817e-01 3.76e-02 4.38e+00  -9.0 1.17e+02    -  9.56e-01 2.19e-01h  1
 343 -2.5518958e-01 3.19e-02 2.90e+00  -9.0 9.29e+01    -  1.00e+00 3.38e-01h  1
 344 -2.5519027e-01 2.60e-02 8.94e-03  -9.0 6.33e+01    -  1.00e+00 1.00e+00h  1
 345 -2.5519018e-01 4.41e-06 1.01e-06  -9.0 5.19e-01    -  1.00e+00 1.00e+00h  1
 346 -2.5519018e-01 2.84e-10 4.72e-12  -9.0 1.00e-04    -  1.00e+00 1.00e+00h  1

Number of Iterations....: 346

                                   (scaled)                 (unscaled)
Objective...............:  -2.5519018274427402e-01   -2.5519018274427402e-01
Dual infeasibility......:   4.7180649083681616e-12    4.7180649083681616e-12
Constraint violation....:   2.8405589610081688e-10    2.8405589610081688e-10
Complementarity.........:   9.2745947332120940e-10    9.2745947332120940e-10
Overall NLP error.......:   9.2745947332120940e-10    9.2745947332120940e-10


Number of objective function evaluations             = 805
Number of objective gradient evaluations             = 343
Number of equality constraint evaluations            = 805
Number of inequality constraint evaluations          = 806
Number of equality constraint Jacobian evaluations   = 349
Number of inequality constraint Jacobian evaluations = 349
Number of Lagrangian Hessian evaluations             = 346
Total CPU secs in IPOPT (w/o function evaluations)   =    789.554
Total CPU secs in NLP function evaluations           =     14.290

EXIT: Optimal Solution Found.
